nN = 5;
nR = 15;
nH = 1;

a = [[23, 19, 22, 10, 6, 20, 6, 11, 19, 22, 10, 21, 7, 12, 7], [12, 6, 9, 18, 22, 16, 6, 11, 11, 18, 18, 11, 25, 17, 22], [15, 5, 25, 7, 17, 22, 14, 18, 9, 22, 15, 12, 23, 7, 19], [11, 20, 18, 6, 25, 11, 15, 17, 9, 17, 23, 14, 6, 17, 23], [17, 7, 14, 14, 13, 6, 11, 5, 15, 19, 20, 15, 14, 19, 18]];
c = [[[0, 0, 0, 0, 0, 0, 0, 0, 0, 0, 0, 0, 0, 0, 0], [48, 42, 35, 31, 46, 35, 34, 43, 45, 34, 36, 40, 42, 43, 34], [42, 32, 50, 32, 41, 45, 47, 46, 49, 35, 33, 46, 35, 43, 30], [42, 38, 38, 40, 41, 43, 38, 40, 33, 38, 46, 48, 32, 35, 30], [48, 31, 42, 40, 33, 34, 44, 39, 33, 43, 46, 48, 30, 46, 37]], [[0, 0, 0, 0, 0, 0, 0, 0, 0, 0, 0, 0, 0, 0, 0], [0, 0, 0, 0, 0, 0, 0, 0, 0, 0, 0, 0, 0, 0, 0], [43, 36, 44, 31, 46, 43, 49, 47, 40, 35, 43, 32, 30, 47, 32], [50, 38, 41, 48, 46, 38, 41, 44, 44, 38, 34, 35, 48, 39, 35], [41, 39, 32, 30, 32, 46, 49, 44, 34, 40, 31, 38, 34, 37, 39]], [[0, 0, 0, 0, 0, 0, 0, 0, 0, 0, 0, 0, 0, 0, 0], [0, 0, 0, 0, 0, 0, 0, 0, 0, 0, 0, 0, 0, 0, 0], [0, 0, 0, 0, 0, 0, 0, 0, 0, 0, 0, 0, 0, 0, 0], [37, 32, 48, 46, 35, 38, 37, 36, 42, 50, 36, 40, 49, 44, 49], [40, 44, 45, 35, 34, 48, 32, 49, 43, 37, 48, 41, 32, 34, 36]], [[0, 0, 0, 0, 0, 0, 0, 0, 0, 0, 0, 0, 0, 0, 0], [0, 0, 0, 0, 0, 0, 0, 0, 0, 0, 0, 0, 0, 0, 0], [0, 0, 0, 0, 0, 0, 0, 0, 0, 0, 0, 0, 0, 0, 0], [0, 0, 0, 0, 0, 0, 0, 0, 0, 0, 0, 0, 0, 0, 0], [50, 46, 32, 44, 44, 38, 46, 35, 42, 42, 34, 31, 47, 44, 40]], [[0, 0, 0, 0, 0, 0, 0, 0, 0, 0, 0, 0, 0, 0, 0], [0, 0, 0, 0, 0, 0, 0, 0, 0, 0, 0, 0, 0, 0, 0], [0, 0, 0, 0, 0, 0, 0, 0, 0, 0, 0, 0, 0, 0, 0], [0, 0, 0, 0, 0, 0, 0, 0, 0, 0, 0, 0, 0, 0, 0], [0, 0, 0, 0, 0, 0, 0, 0, 0, 0, 0, 0, 0, 0, 0]]];
Q = [[37], [43], [38], [31], [46]];

q = [[[24], [6], [6], [24], [24], [16], [19], [6], [25], [16], [5], [14], [16], [8], [20]], [[22], [21], [15], [15], [18], [6], [16], [22], [10], [18], [24], [23], [10], [24], [21]], [[10], [12], [20], [21], [14], [18], [9], [22], [16], [21], [15], [17], [9], [15], [15]], [[5], [21], [20], [12], [7], [22], [5], [16], [13], [9], [6], [6], [15], [16], [16]], [[25], [6], [14], [16], [13], [23], [18], [14], [19], [20], [23], [21], [24], [22], [24]]];
p = [0.37, 0.85, 0.77, 0.49, 0.79, 0.12, 0.63, 0.01, 0.75, 0.98, 0.6, 0.35, 0.21, 0.88, 0.74];
